00000000000000000000000000000000000000000000000000,00000000000000000000000000000000000000000000000000,00000000001000000000010000010000000000001101000000,00000000000001000000000000100000010111100000001010,00000000010010001000000001001010101000000000000000,00000000000000000000000000000000000000000000000000,00001000000100000000000100000000000000000010010001,00000110000000100010101010000100000000000000100100,00000000000000000000000000000000000000000000000000,11110001100000010101000000000001000000010000000000,[],[],[0, 0, 0, 0, 0, 0, 0, 0, 0, 0, 9, 0, 0, 0, 0, 0, 0, 0, 0, 0, 0, 9, 0, 0, 0, 0, 0, 9, 0, 0, 0, 0, 0, 0, 0, 0, 0, 0, 0, 0, 9, 9, 0, 9, 0, 0, 0, 0, 0, 0],[0, 0, 0, 0, 0, 0, 0, 0, 0, 0, 0, 0, 0, 5, 0, 0, 0, 0, 0, 0, 0, 0, 0, 0, 0, 0, 2, 0, 0, 0, 0, 0, 0, 2, 0, 2, 5, 5, 2, 0, 0, 0, 0, 0, 0, 0, 5, 0, 2, 0],[0, 0, 0, 0, 0, 0, 0, 0, 0, 6, 0, 0, 3, 0, 0, 0, 6, 0, 0, 0, 0, 0, 0, 0, 0, 3, 0, 0, 6, 0, 3, 0, 3, 0, 6, 0, 0, 0, 0, 0, 0, 0, 0, 0, 0, 0, 0, 0, 0, 0],[],[0, 0, 0, 0, 1, 0, 0, 0, 0, 0, 0, 1, 0, 0, 0, 0, 0, 0, 0, 0, 0, 0, 0, 1, 0, 0, 0, 0, 0, 0, 0, 0, 0, 0, 0, 0, 0, 0, 0, 0, 0, 0, 1, 0, 0, 1, 0, 0, 0, 1],[0, 0, 0, 0, 0, 7, 7, 0, 0, 0, 0, 0, 0, 0, 7, 0, 0, 0, 7, 0, 7, 0, 7, 0, 10, 0, 0, 0, 0, 10, 0, 0, 0, 0, 0, 0, 0, 0, 0, 0, 0, 0, 0, 0, 10, 0, 0, 10, 0, 0],[],[4, 8, 4, 4, 0, 0, 0, 8, 4, 0, 0, 0, 0, 0, 0, 8, 0, 4, 0, 8, 0, 0, 0, 0, 0, 0, 0, 0, 0, 0, 0, 8, 0, 0, 0, 0, 0, 0, 0, 4, 0, 0, 0, 0, 0, 0, 0, 0, 0, 0][49, 45, 23, 4, 42, 11],[33, 48, 26, 38, 35],[32, 30, 25, 12],[17, 0, 3, 8, 39, 2],[37, 13, 46, 36],[28, 16, 9, 34],[5, 18, 6, 22, 14, 20],[15, 31, 1, 19, 7],[27, 10, 41, 21, 43, 40],[47, 44, 24, 29]
00000000000000000000000000000000000000000000000000,00000000000000000000000000000000000000000000000000,00000000001000000000010000010000000000001101000000,00000000000001000000000000100000010111100000001010,00000000010010001000000001001010101000000000000000,00000000000000000000000000000000000000000000000000,00001000000100000000000100000000000000000010010001,00000110000000100000101010000000000000000000100000,00000000000000000010000000000100000000000000000100,11110001100000010101000000000001000000010000000000,[],[],[0, 0, 0, 0, 0, 0, 0, 0, 0, 0, 10, 0, 0, 0, 0, 0, 0, 0, 0, 0, 0, 10, 0, 0, 0, 0, 0, 10, 0, 0, 0, 0, 0, 0, 0, 0, 0, 0, 0, 0, 10, 10, 0, 10, 0, 0, 0, 0, 0, 0],[0, 0, 0, 0, 0, 0, 0, 0, 0, 0, 0, 0, 0, 2, 0, 0, 0, 0, 0, 0, 0, 0, 0, 0, 0, 0, 2, 0, 0, 0, 0, 0, 0, 1, 0, 1, 2, 1, 1, 0, 0, 0, 0, 0, 0, 0, 1, 0, 1, 0],[0, 0, 0, 0, 0, 0, 0, 0, 0, 6, 0, 0, 5, 0, 0, 0, 5, 0, 0, 0, 0, 0, 0, 0, 0, 6, 0, 0, 5, 0, 6, 0, 6, 0, 6, 0, 0, 0, 0, 0, 0, 0, 0, 0, 0, 0, 0, 0, 0, 0],[],[0, 0, 0, 0, 8, 0, 0, 0, 0, 0, 0, 8, 0, 0, 0, 0, 0, 0, 0, 0, 0, 0, 0, 8, 0, 0, 0, 0, 0, 0, 0, 0, 0, 0, 0, 0, 0, 0, 0, 0, 0, 0, 8, 0, 0, 8, 0, 0, 0, 8],[0, 0, 0, 0, 0, 9, 9, 0, 0, 0, 0, 0, 0, 0, 9, 0, 0, 0, 0, 0, 9, 0, 9, 0, 9, 0, 0, 0, 0, 0, 0, 0, 0, 0, 0, 0, 0, 0, 0, 0, 0, 0, 0, 0, 9, 0, 0, 0, 0, 0],[0, 0, 0, 0, 0, 0, 0, 0, 0, 0, 0, 0, 0, 0, 0, 0, 0, 0, 3, 0, 0, 0, 0, 0, 0, 0, 0, 0, 0, 3, 0, 0, 0, 0, 0, 0, 0, 0, 0, 0, 0, 0, 0, 0, 0, 0, 0, 3, 0, 0],[7, 4, 7, 4, 0, 0, 0, 4, 4, 0, 0, 0, 0, 0, 0, 7, 0, 4, 0, 4, 0, 0, 0, 0, 0, 0, 0, 0, 0, 0, 0, 7, 0, 0, 0, 0, 0, 0, 0, 4, 0, 0, 0, 0, 0, 0, 0, 0, 0, 0][33, 48, 38, 35, 46, 37],[36, 13, 26],[29, 18, 47],[17, 7, 8, 1, 19, 3, 39],[16, 28, 12],[25, 30, 32, 34, 9],[31, 15, 2, 0],[45, 23, 42, 4, 11, 49],[20, 24, 44, 14, 22, 6, 5],[27, 10, 40, 43, 21, 41]
00000000000000000000000000000000000000000000000000,00000000000000000000000000000000000000000000000000,00000000000000000000000000000000000000000000000000,00000000000001000000000000100000010111100000001010,00000000011010001000010001011010101000001101000000,00000000000000000000000000000000000000000000000000,00000000000000000000000000000000000000000000000000,00001110000100100010101110000100000000000010110101,00000000000000000000000000000000000000000000000000,11110001100000010101000000000001000000010000000000,[],[],[],[0, 0, 0, 0, 0, 0, 0, 0, 0, 0, 0, 0, 0, 2, 0, 0, 0, 0, 0, 0, 0, 0, 0, 0, 0, 0, 7, 0, 0, 0, 0, 0, 0, 7, 0, 2, 7, 7, 7, 0, 0, 0, 0, 0, 0, 0, 2, 0, 2, 0],[0, 0, 0, 0, 0, 0, 0, 0, 0, 4, 3, 0, 4, 0, 0, 0, 5, 0, 0, 0, 0, 4, 0, 0, 0, 4, 0, 5, 3, 0, 4, 0, 3, 0, 3, 0, 0, 0, 0, 0, 4, 5, 0, 4, 0, 0, 0, 0, 0, 0],[],[],[0, 0, 0, 0, 8, 10, 10, 0, 0, 0, 0, 10, 0, 0, 10, 0, 0, 0, 10, 0, 9, 0, 8, 10, 8, 0, 0, 0, 0, 9, 0, 0, 0, 0, 0, 0, 0, 0, 0, 0, 0, 0, 9, 0, 8, 8, 0, 9, 0, 9],[],[6, 6, 1, 1, 0, 0, 0, 1, 1, 0, 0, 0, 0, 0, 0, 1, 0, 6, 0, 6, 0, 0, 0, 0, 0, 0, 0, 0, 0, 0, 0, 6, 0, 0, 0, 0, 0, 0, 0, 1, 0, 0, 0, 0, 0, 0, 0, 0, 0, 0][15, 3, 8, 2, 7, 39],[48, 13, 46, 35],[10, 32, 34, 28],[9, 30, 40, 43, 21, 12, 25],[27, 41, 16],[0, 31, 1, 17, 19],[26, 37, 36, 33, 38],[44, 45, 22, 4, 24],[42, 49, 29, 20, 47],[14, 18, 5, 11, 23, 6]
00000000000000000000000000000000000000000000000000,00000000000000000000000000000000000000000000000000,00000000001000000000010000010000000000001101000000,00000000000001000000000000100000010111100000001010,00000000010010001000000001001010101000000000000000,00000000000000000000000000000000000000000000000000,00001000000100000000000100000000000000000010010001,00000110000000100000101010000000000000000000100000,00000000000000000010000000000100000000000000000100,11110001100000010101000000000001000000010000000000,[],[],[0, 0, 0, 0, 0, 0, 0, 0, 0, 0, 9, 0, 0, 0, 0, 0, 0, 0, 0, 0, 0, 9, 0, 0, 0, 0, 0, 9, 0, 0, 0, 0, 0, 0, 0, 0, 0, 0, 0, 0, 9, 9, 0, 9, 0, 0, 0, 0, 0, 0],[0, 0, 0, 0, 0, 0, 0, 0, 0, 0, 0, 0, 0, 6, 0, 0, 0, 0, 0, 0, 0, 0, 0, 0, 0, 0, 6, 0, 0, 0, 0, 0, 0, 5, 0, 6, 5, 6, 5, 0, 0, 0, 0, 0, 0, 0, 5, 0, 6, 0],[0, 0, 0, 0, 0, 0, 0, 0, 0, 4, 0, 0, 4, 0, 0, 0, 4, 0, 0, 0, 0, 0, 0, 0, 0, 4, 0, 0, 4, 0, 4, 0, 4, 0, 4, 0, 0, 0, 0, 0, 0, 0, 0, 0, 0, 0, 0, 0, 0, 0],[],[0, 0, 0, 0, 1, 0, 0, 0, 0, 0, 0, 1, 0, 0, 0, 0, 0, 0, 0, 0, 0, 0, 0, 1, 0, 0, 0, 0, 0, 0, 0, 0, 0, 0, 0, 0, 0, 0, 0, 0, 0, 0, 1, 0, 0, 1, 0, 0, 0, 1],[0, 0, 0, 0, 0, 3, 3, 0, 0, 0, 0, 0, 0, 0, 3, 0, 0, 0, 0, 0, 7, 0, 7, 0, 3, 0, 0, 0, 0, 0, 0, 0, 0, 0, 0, 0, 0, 0, 0, 0, 0, 0, 0, 0, 7, 0, 0, 0, 0, 0],[0, 0, 0, 0, 0, 0, 0, 0, 0, 0, 0, 0, 0, 0, 0, 0, 0, 0, 2, 0, 0, 0, 0, 0, 0, 0, 0, 0, 0, 2, 0, 0, 0, 0, 0, 0, 0, 0, 0, 0, 0, 0, 0, 0, 0, 0, 0, 2, 0, 0],[10, 10, 8, 8, 0, 0, 0, 8, 8, 0, 0, 0, 0, 0, 0, 8, 0, 10, 0, 10, 0, 0, 0, 0, 0, 0, 0, 0, 0, 0, 0, 10, 0, 0, 0, 0, 0, 0, 0, 10, 0, 0, 0, 0, 0, 0, 0, 0, 0, 0][45, 4, 42, 23, 49, 11],[47, 18, 29],[14, 24, 6, 5],[25, 12, 16, 28, 9, 34, 32, 30],[36, 33, 38, 46],[13, 26, 35, 48, 37],[22, 44, 20],[15, 7, 2, 8, 3],[21, 41, 40, 43, 10, 27],[17, 19, 0, 39, 31, 1]
00000000000000000000000000000000000000000000000000,00000000000000000000000000000000000000000000000000,00000000001000000000010000010000000000001101000000,00000000000001000000000000100000010111100000001010,00000000010010001000000001001010101000000000000000,00000000000000000000000000000000000000000000000000,00001000000100000000000100000000000000000010010001,00000110000000100010101010000100000000000000100100,00000000000000000000000000000000000000000000000000,11110001100000010101000000000001000000010000000000,[],[],[0, 0, 0, 0, 0, 0, 0, 0, 0, 0, 3, 0, 0, 0, 0, 0, 0, 0, 0, 0, 0, 3, 0, 0, 0, 0, 0, 3, 0, 0, 0, 0, 0, 0, 0, 0, 0, 0, 0, 0, 3, 3, 0, 3, 0, 0, 0, 0, 0, 0],[0, 0, 0, 0, 0, 0, 0, 0, 0, 0, 0, 0, 0, 5, 0, 0, 0, 0, 0, 0, 0, 0, 0, 0, 0, 0, 5, 0, 0, 0, 0, 0, 0, 5, 0, 6, 6, 6, 5, 0, 0, 0, 0, 0, 0, 0, 5, 0, 6, 0],[0, 0, 0, 0, 0, 0, 0, 0, 0, 2, 0, 0, 1, 0, 0, 0, 1, 0, 0, 0, 0, 0, 0, 0, 0, 1, 0, 0, 1, 0, 2, 0, 1, 0, 2, 0, 0, 0, 0, 0, 0, 0, 0, 0, 0, 0, 0, 0, 0, 0],[],[0, 0, 0, 0, 8, 0, 0, 0, 0, 0, 0, 8, 0, 0, 0, 0, 0, 0, 0, 0, 0, 0, 0, 8, 0, 0, 0, 0, 0, 0, 0, 0, 0, 0, 0, 0, 0, 0, 0, 0, 0, 0, 8, 0, 0, 8, 0, 0, 0, 8],[0, 0, 0, 0, 0, 7, 4, 0, 0, 0, 0, 0, 0, 0, 4, 0, 0, 0, 4, 0, 4, 0, 7, 0, 4, 0, 0, 0, 0, 4, 0, 0, 0, 0, 0, 0, 0, 0, 0, 0, 0, 0, 0, 0, 7, 0, 0, 4, 0, 0],[],[9, 9, 10, 9, 0, 0, 0, 9, 10, 0, 0, 0, 0, 0, 0, 9, 0, 9, 0, 10, 0, 0, 0, 0, 0, 0, 0, 0, 0, 0, 0, 10, 0, 0, 0, 0, 0, 0, 0, 10, 0, 0, 0, 0, 0, 0, 0, 0, 0, 0][28, 32, 12, 16, 25],[9, 30, 34],[27, 41, 21, 43, 10, 40],[20, 24, 29, 14, 6, 47, 18],[33, 26, 38, 46, 13],[48, 36, 37, 35],[5, 22, 44],[49, 11, 45, 4, 23, 42],[3, 17, 7, 0, 15, 1],[39, 2, 8, 31, 19]
00000000000000000000000000000000000000000000000000,00000000000000000000000000000000000000000000000000,00000000001000000000010000010000000000001101000000,00000000000001000000000000100000010111100000001010,00000000010010001000000001001010101000000000000000,00000000000000000000000000000000000000000000000000,00001000000100000000000100000000000000000010010001,00000110000000100000101010000000000000000000100000,00000000000000000010000000000100000000000000000100,11110001100000010101000000000001000000010000000000,[],[],[0, 0, 0, 0, 0, 0, 0, 0, 0, 0, 9, 0, 0, 0, 0, 0, 0, 0, 0, 0, 0, 9, 0, 0, 0, 0, 0, 9, 0, 0, 0, 0, 0, 0, 0, 0, 0, 0, 0, 0, 9, 9, 0, 9, 0, 0, 0, 0, 0, 0],[0, 0, 0, 0, 0, 0, 0, 0, 0, 0, 0, 0, 0, 8, 0, 0, 0, 0, 0, 0, 0, 0, 0, 0, 0, 0, 8, 0, 0, 0, 0, 0, 0, 8, 0, 8, 6, 8, 6, 0, 0, 0, 0, 0, 0, 0, 8, 0, 6, 0],[0, 0, 0, 0, 0, 0, 0, 0, 0, 2, 0, 0, 10, 0, 0, 0, 2, 0, 0, 0, 0, 0, 0, 0, 0, 2, 0, 0, 10, 0, 10, 0, 2, 0, 10, 0, 0, 0, 0, 0, 0, 0, 0, 0, 0, 0, 0, 0, 0, 0],[],[0, 0, 0, 0, 1, 0, 0, 0, 0, 0, 0, 1, 0, 0, 0, 0, 0, 0, 0, 0, 0, 0, 0, 1, 0, 0, 0, 0, 0, 0, 0, 0, 0, 0, 0, 0, 0, 0, 0, 0, 0, 0, 1, 0, 0, 1, 0, 0, 0, 1],[0, 0, 0, 0, 0, 7, 7, 0, 0, 0, 0, 0, 0, 0, 7, 0, 0, 0, 0, 0, 7, 0, 7, 0, 7, 0, 0, 0, 0, 0, 0, 0, 0, 0, 0, 0, 0, 0, 0, 0, 0, 0, 0, 0, 7, 0, 0, 0, 0, 0],[0, 0, 0, 0, 0, 0, 0, 0, 0, 0, 0, 0, 0, 0, 0, 0, 0, 0, 3, 0, 0, 0, 0, 0, 0, 0, 0, 0, 0, 3, 0, 0, 0, 0, 0, 0, 0, 0, 0, 0, 0, 0, 0, 0, 0, 0, 0, 3, 0, 0],[5, 5, 4, 4, 0, 0, 0, 5, 4, 0, 0, 0, 0, 0, 0, 4, 0, 4, 0, 4, 0, 0, 0, 0, 0, 0, 0, 0, 0, 0, 0, 4, 0, 0, 0, 0, 0, 0, 0, 5, 0, 0, 0, 0, 0, 0, 0, 0, 0, 0][11, 23, 45, 4, 49, 42],[16, 25, 9, 32],[29, 47, 18],[31, 8, 3, 2, 15, 19, 17],[0, 7, 1, 39],[36, 48, 38],[14, 20, 24, 22, 44, 6, 5],[35, 13, 33, 37, 26, 46],[27, 21, 10, 41, 40, 43],[28, 12, 34, 30]
00001000000000000000000100000000000000000010010001,00000000000000000000000000000000000000000000000000,00000000001000000000010000010000000000001101000000,00000000000001000000000000100000010111100000001010,00000000010010001000000001001010101000000000000000,00000000000100000010100010000000000000000000000100,00000000000000000000000000000000000000000000000000,00000110000000100000001000000100000000000000100000,00000000000000000000000000000000000000000000000000,11110001100000010101000000000001000000010000000000,[0, 0, 0, 0, 8, 0, 0, 0, 0, 0, 0, 0, 0, 0, 0, 0, 0, 0, 0, 0, 0, 0, 0, 8, 0, 0, 0, 0, 0, 0, 0, 0, 0, 0, 0, 0, 0, 0, 0, 0, 0, 0, 8, 0, 0, 8, 0, 0, 0, 8],[],[0, 0, 0, 0, 0, 0, 0, 0, 0, 0, 1, 0, 0, 0, 0, 0, 0, 0, 0, 0, 0, 1, 0, 0, 0, 0, 0, 1, 0, 0, 0, 0, 0, 0, 0, 0, 0, 0, 0, 0, 1, 1, 0, 1, 0, 0, 0, 0, 0, 0],[0, 0, 0, 0, 0, 0, 0, 0, 0, 0, 0, 0, 0, 4, 0, 0, 0, 0, 0, 0, 0, 0, 0, 0, 0, 0, 4, 0, 0, 0, 0, 0, 0, 4, 0, 4, 4, 4, 4, 0, 0, 0, 0, 0, 0, 0, 4, 0, 4, 0],[0, 0, 0, 0, 0, 0, 0, 0, 0, 3, 0, 0, 6, 0, 0, 0, 3, 0, 0, 0, 0, 0, 0, 0, 0, 3, 0, 0, 3, 0, 6, 0, 3, 0, 6, 0, 0, 0, 0, 0, 0, 0, 0, 0, 0, 0, 0, 0, 0, 0],[0, 0, 0, 0, 0, 0, 0, 0, 0, 0, 0, 9, 0, 0, 0, 0, 0, 0, 9, 0, 9, 0, 0, 0, 9, 0, 0, 0, 0, 0, 0, 0, 0, 0, 0, 0, 0, 0, 0, 0, 0, 0, 0, 0, 0, 0, 0, 9, 0, 0],[],[0, 0, 0, 0, 0, 5, 2, 0, 0, 0, 0, 0, 0, 0, 5, 0, 0, 0, 0, 0, 0, 0, 2, 0, 0, 0, 0, 0, 0, 2, 0, 0, 0, 0, 0, 0, 0, 0, 0, 0, 0, 0, 0, 0, 2, 0, 0, 0, 0, 0],[],[10, 7, 7, 10, 0, 0, 0, 7, 10, 0, 0, 0, 0, 0, 0, 10, 0, 10, 0, 7, 0, 0, 0, 0, 0, 0, 0, 0, 0, 0, 0, 10, 0, 0, 0, 0, 0, 0, 0, 10, 0, 0, 0, 0, 0, 0, 0, 0, 0, 0][27, 43, 40, 41, 10, 21],[22, 6, 44, 29],[25, 16, 28, 32, 9],[36, 13, 33, 46, 48, 37, 26, 38, 35],[14, 5],[30, 34, 12],[19, 7, 2, 1],[45, 23, 42, 49, 4],[18, 11, 47, 20, 24],[3, 15, 31, 8, 39, 0, 17]
00000000000000000000000000000000000000000000000000,00000000000000000000000000000000000000000000000000,00100000011010001000010001011011101000001101000000,00000000000000000000000000000000000000000000000000,00000000000000000000000000000000000000000000000000,10000110000001100010101010000000000001100000001000,00001000000100000000000100100000010110000010010011,00000000000000000000000000000000000000000000000000,01010001100000010101000000000100000000010000100100,00000000000000000000000000000000000000000000000000,[],[],[0, 0, 9, 0, 0, 0, 0, 0, 0, 5, 5, 0, 1, 0, 0, 0, 1, 0, 0, 0, 0, 9, 0, 0, 0, 9, 0, 1, 9, 0, 9, 5, 9, 0, 5, 0, 0, 0, 0, 0, 9, 1, 0, 5, 0, 0, 0, 0, 0, 0],[],[],[4, 0, 0, 0, 0, 4, 7, 0, 0, 0, 0, 0, 0, 4, 4, 0, 0, 0, 4, 0, 4, 0, 7, 0, 4, 0, 0, 0, 0, 0, 0, 0, 0, 0, 0, 0, 0, 7, 7, 0, 0, 0, 0, 0, 0, 0, 7, 0, 0, 0],[0, 0, 0, 0, 3, 0, 0, 0, 0, 0, 0, 8, 0, 0, 0, 0, 0, 0, 0, 0, 0, 0, 0, 8, 0, 0, 3, 0, 0, 0, 0, 0, 0, 3, 0, 8, 8, 0, 0, 0, 0, 0, 8, 0, 0, 3, 0, 0, 3, 8],[],[0, 10, 0, 10, 0, 0, 0, 2, 10, 0, 0, 0, 0, 0, 0, 2, 0, 10, 0, 2, 0, 0, 0, 0, 0, 0, 0, 0, 0, 6, 0, 0, 0, 0, 0, 0, 0, 0, 0, 10, 0, 0, 0, 0, 6, 0, 0, 6, 0, 0],[][27, 41, 16, 12],[15, 7, 19],[45, 26, 33, 48, 4],[5, 13, 0, 24, 18, 14, 20],[34, 10, 9, 31, 43],[29, 44, 47],[6, 46, 37, 22, 38],[35, 11, 42, 36, 23, 49],[32, 2, 21, 40, 25, 28, 30],[17, 8, 3, 39, 1]
00000000000000000000000000000000000000000000000000,00000000000000000000000000000000000000000000000000,00000000000000000000000000000000000000000000000000,00000000000000000000000000000000000000000000000000,00000000011010001000010001011010101000001101000000,00000110000000100010101010000100000000000000101100,00001000000100000000000100100000010100000010010011,00000000000000000000000000000000000000000000000000,00000000000000000000000000000000000000000000000000,11110001100001010101000000000001000011110000000000,[],[],[],[],[0, 0, 0, 0, 0, 0, 0, 0, 0, 4, 2, 0, 4, 0, 0, 0, 2, 0, 0, 0, 0, 6, 0, 0, 0, 4, 0, 6, 4, 0, 4, 0, 4, 0, 4, 0, 0, 0, 0, 0, 4, 6, 0, 6, 0, 0, 0, 0, 0, 0],[0, 0, 0, 0, 0, 7, 7, 0, 0, 0, 0, 0, 0, 0, 7, 0, 0, 0, 1, 0, 1, 0, 7, 0, 7, 0, 0, 0, 0, 7, 0, 0, 0, 0, 0, 0, 0, 0, 0, 0, 0, 0, 0, 0, 1, 0, 1, 1, 0, 0],[0, 0, 0, 0, 3, 0, 0, 0, 0, 0, 0, 3, 0, 0, 0, 0, 0, 0, 0, 0, 0, 0, 0, 3, 0, 0, 9, 0, 0, 0, 0, 0, 0, 3, 0, 3, 0, 0, 0, 0, 0, 0, 9, 0, 0, 9, 0, 0, 9, 9],[],[],[8, 10, 8, 10, 0, 0, 0, 5, 8, 0, 0, 0, 0, 5, 0, 10, 0, 8, 0, 10, 0, 0, 0, 0, 0, 0, 0, 0, 0, 0, 0, 8, 0, 0, 0, 0, 5, 5, 8, 10, 0, 0, 0, 0, 0, 0, 0, 0, 0, 0][20, 44, 47, 18, 46],[16, 10],[35, 23, 11, 33, 4],[40, 9, 28, 30, 32, 25, 12, 34],[36, 7, 13, 37],[41, 21, 43, 27],[14, 22, 29, 5, 24, 6],[8, 38, 17, 0, 2, 31],[45, 49, 26, 48, 42],[1, 15, 19, 3, 39]
00000000000000000000000000000000000000000000000000,00000000000000000000000000000000000000000000000000,00000100001000100010111010010100000000001101110100,00001010000101000000000100100000010111100010001011,00000000010010001000000001001010101000000000000000,00000000000000000000000000000000000000000000000000,00000000000000000000000000000000000000000000000000,00000000000000000000000000000000000000000000000000,00000000000000000000000000000000000000000000000000,11110001100000010101000000000001000000010000000000,[],[],[0, 0, 0, 0, 0, 8, 0, 0, 0, 0, 10, 0, 0, 0, 8, 0, 0, 0, 8, 0, 10, 1, 10, 0, 10, 0, 0, 8, 0, 8, 0, 0, 0, 0, 0, 0, 0, 0, 0, 0, 1, 1, 0, 1, 10, 1, 0, 1, 0, 0],[0, 0, 0, 0, 9, 0, 5, 0, 0, 0, 0, 5, 0, 6, 0, 0, 0, 0, 0, 0, 0, 0, 0, 5, 0, 0, 5, 0, 0, 0, 0, 0, 0, 5, 0, 6, 6, 9, 5, 0, 0, 0, 9, 0, 0, 0, 9, 0, 9, 9],[0, 0, 0, 0, 0, 0, 0, 0, 0, 2, 0, 0, 2, 0, 0, 0, 3, 0, 0, 0, 0, 0, 0, 0, 0, 2, 0, 0, 3, 0, 3, 0, 3, 0, 2, 0, 0, 0, 0, 0, 0, 0, 0, 0, 0, 0, 0, 0, 0, 0],[],[],[],[],[4, 7, 4, 7, 0, 0, 0, 7, 4, 0, 0, 0, 0, 0, 0, 7, 0, 4, 0, 4, 0, 0, 0, 0, 0, 0, 0, 0, 0, 0, 0, 7, 0, 0, 0, 0, 0, 0, 0, 4, 0, 0, 0, 0, 0, 0, 0, 0, 0, 0][40, 45, 43, 21, 41, 47],[12, 25, 9, 34],[32, 30, 16, 28],[0, 19, 17, 39, 2, 8],[33, 38, 6, 11, 23, 26],[35, 13, 36],[31, 3, 15, 7, 1],[14, 5, 18, 29, 27],[49, 4, 42, 48, 37, 46],[20, 44, 24, 22, 10]
00000000000000000000000000000000000000000000000000,00000000000000000000000000000000000000000000000000,00000000001000000000010000010000000000001101000000,00000000000001000000000000100000010111100000001010,00000000010010001000000001001010101000000000000000,00000000000000000010100010000000000000000000000000,00001000000100000000000100000000000000000010010001,00000110000000100000001000000000000000000000100000,00000000000000000000000000000100000000000000000100,11110001100000010101000000000001000000010000000000,[],[],[0, 0, 0, 0, 0, 0, 0, 0, 0, 0, 1, 0, 0, 0, 0, 0, 0, 0, 0, 0, 0, 1, 0, 0, 0, 0, 0, 1, 0, 0, 0, 0, 0, 0, 0, 0, 0, 0, 0, 0, 1, 1, 0, 1, 0, 0, 0, 0, 0, 0],[0, 0, 0, 0, 0, 0, 0, 0, 0, 0, 0, 0, 0, 9, 0, 0, 0, 0, 0, 0, 0, 0, 0, 0, 0, 0, 9, 0, 0, 0, 0, 0, 0, 9, 0, 9, 9, 9, 9, 0, 0, 0, 0, 0, 0, 0, 9, 0, 9, 0],[0, 0, 0, 0, 0, 0, 0, 0, 0, 3, 0, 0, 3, 0, 0, 0, 3, 0, 0, 0, 0, 0, 0, 0, 0, 3, 0, 0, 5, 0, 5, 0, 5, 0, 5, 0, 0, 0, 0, 0, 0, 0, 0, 0, 0, 0, 0, 0, 0, 0],[0, 0, 0, 0, 0, 0, 0, 0, 0, 0, 0, 0, 0, 0, 0, 0, 0, 0, 2, 0, 2, 0, 0, 0, 2, 0, 0, 0, 0, 0, 0, 0, 0, 0, 0, 0, 0, 0, 0, 0, 0, 0, 0, 0, 0, 0, 0, 0, 0, 0],[0, 0, 0, 0, 7, 0, 0, 0, 0, 0, 0, 7, 0, 0, 0, 0, 0, 0, 0, 0, 0, 0, 0, 7, 0, 0, 0, 0, 0, 0, 0, 0, 0, 0, 0, 0, 0, 0, 0, 0, 0, 0, 7, 0, 0, 7, 0, 0, 0, 7],[0, 0, 0, 0, 0, 8, 8, 0, 0, 0, 0, 0, 0, 0, 8, 0, 0, 0, 0, 0, 0, 0, 8, 0, 0, 0, 0, 0, 0, 0, 0, 0, 0, 0, 0, 0, 0, 0, 0, 0, 0, 0, 0, 0, 8, 0, 0, 0, 0, 0],[0, 0, 0, 0, 0, 0, 0, 0, 0, 0, 0, 0, 0, 0, 0, 0, 0, 0, 0, 0, 0, 0, 0, 0, 0, 0, 0, 0, 0, 6, 0, 0, 0, 0, 0, 0, 0, 0, 0, 0, 0, 0, 0, 0, 0, 0, 0, 6, 0, 0],[10, 4, 10, 10, 0, 0, 0, 4, 4, 0, 0, 0, 0, 0, 0, 4, 0, 10, 0, 4, 0, 0, 0, 0, 0, 0, 0, 0, 0, 0, 0, 10, 0, 0, 0, 0, 0, 0, 0, 4, 0, 0, 0, 0, 0, 0, 0, 0, 0, 0][21, 10, 43, 41, 40, 27],[20, 18, 24],[9, 12, 25, 16],[8, 39, 15, 1, 7, 19],[32, 28, 30, 34],[47, 29],[45, 4, 49, 11, 23, 42],[14, 5, 44, 6, 22],[33, 37, 35, 48, 26, 46, 38, 36, 13],[0, 17, 3, 2, 31]
00000000000000000000000000000000000000000000000000,00000000000000000000000000000000000000000000000000,00000000000000000000000000000000000000000000000000,00000000000001000000000000100000010111100000001010,00000000011010001000000001011010101000001101000000,00000000000000000000000000000000000000000000000000,00001000000100000000000100000000000000000010010001,00000110000000100000101010000000000000000000100000,00000000000000000010010000000100000000000000000100,11110001100000010101000000000001000000010000000000,[],[],[],[0, 0, 0, 0, 0, 0, 0, 0, 0, 0, 0, 0, 0, 10, 0, 0, 0, 0, 0, 0, 0, 0, 0, 0, 0, 0, 6, 0, 0, 0, 0, 0, 0, 10, 0, 6, 10, 6, 10, 0, 0, 0, 0, 0, 0, 0, 6, 0, 10, 0],[0, 0, 0, 0, 0, 0, 0, 0, 0, 3, 4, 0, 3, 0, 0, 0, 4, 0, 0, 0, 0, 0, 0, 0, 0, 4, 0, 3, 3, 0, 3, 0, 4, 0, 4, 0, 0, 0, 0, 0, 4, 4, 0, 3, 0, 0, 0, 0, 0, 0],[],[0, 0, 0, 0, 9, 0, 0, 0, 0, 0, 0, 9, 0, 0, 0, 0, 0, 0, 0, 0, 0, 0, 0, 9, 0, 0, 0, 0, 0, 0, 0, 0, 0, 0, 0, 0, 0, 0, 0, 0, 0, 0, 9, 0, 0, 9, 0, 0, 0, 9],[0, 0, 0, 0, 0, 5, 2, 0, 0, 0, 0, 0, 0, 0, 2, 0, 0, 0, 0, 0, 5, 0, 5, 0, 2, 0, 0, 0, 0, 0, 0, 0, 0, 0, 0, 0, 0, 0, 0, 0, 0, 0, 0, 0, 2, 0, 0, 0, 0, 0],[0, 0, 0, 0, 0, 0, 0, 0, 0, 0, 0, 0, 0, 0, 0, 0, 0, 0, 8, 0, 0, 8, 0, 0, 0, 0, 0, 0, 0, 8, 0, 0, 0, 0, 0, 0, 0, 0, 0, 0, 0, 0, 0, 0, 0, 0, 0, 8, 0, 0],[1, 1, 1, 7, 0, 0, 0, 7, 7, 0, 0, 0, 0, 0, 0, 7, 0, 1, 0, 1, 0, 0, 0, 0, 0, 0, 0, 0, 0, 0, 0, 7, 0, 0, 0, 0, 0, 0, 0, 7, 0, 0, 0, 0, 0, 0, 0, 0, 0, 0][19, 0, 17, 1, 2],[14, 6, 44, 24],[12, 28, 43, 30, 27, 9],[10, 16, 41, 34, 32, 40, 25],[5, 20, 22],[35, 46, 26, 37],[31, 15, 8, 39, 3, 7],[47, 21, 29, 18],[42, 11, 23, 4, 45, 49],[48, 13, 36, 38, 33]
00000000000000000000000000000000000000000000000000,00000000000000000000000000000000000000000000000000,00000000000000000000000000000000000000000000000000,00000000000001000000000000100000010111100000001010,00000000011010001000010001011010101000001101000000,00001110000100100010101110000100000000000010110101,00000000000000000000000000000000000000000000000000,00000000000000000000000000000000000000000000000000,00000000000000000000000000000000000000000000000000,11110001100000010101000000000001000000010000000000,[],[],[],[0, 0, 0, 0, 0, 0, 0, 0, 0, 0, 0, 0, 0, 8, 0, 0, 0, 0, 0, 0, 0, 0, 0, 0, 0, 0, 8, 0, 0, 0, 0, 0, 0, 8, 0, 8, 8, 2, 8, 0, 0, 0, 0, 0, 0, 0, 2, 0, 2, 0],[0, 0, 0, 0, 0, 0, 0, 0, 0, 10, 5, 0, 10, 0, 0, 0, 6, 0, 0, 0, 0, 5, 0, 0, 0, 6, 0, 10, 6, 0, 5, 0, 10, 0, 5, 0, 0, 0, 0, 0, 5, 10, 0, 6, 0, 0, 0, 0, 0, 0],[0, 0, 0, 0, 3, 3, 4, 0, 0, 0, 0, 7, 0, 0, 3, 0, 0, 0, 7, 0, 7, 0, 4, 7, 4, 0, 0, 0, 0, 4, 0, 0, 0, 0, 0, 0, 0, 0, 0, 0, 0, 0, 4, 0, 4, 3, 0, 4, 0, 7],[],[],[],[9, 1, 9, 9, 0, 0, 0, 9, 1, 0, 0, 0, 0, 0, 0, 1, 0, 1, 0, 9, 0, 0, 0, 0, 0, 0, 0, 0, 0, 0, 0, 1, 0, 0, 0, 0, 0, 0, 0, 1, 0, 0, 0, 0, 0, 0, 0, 0, 0, 0][17, 39, 15, 8, 1, 31],[37, 46, 48],[14, 5, 4, 45],[29, 44, 24, 47, 22, 6, 42],[40, 21, 10, 34, 30],[28, 43, 16, 25],[18, 49, 20, 11, 23],[33, 26, 38, 35, 13, 36],[0, 19, 7, 3, 2],[12, 32, 9, 27, 41]
00000000000000000000000000000000000000000000000000,00000000000000000000000000000000000000000000000000,00000000011010001000010001011110001000001101000000,00000000000001000000000000100000010111100000001010,00000000000000000000000000000000000000000000000000,00001110000100100010101110000000000000000010110101,00000000000000000000000000000000000000000000000000,00000000000000000000000000000000000000000000000000,00000000000000000000000000000000000000000000000000,11110001100000010101000000000001100000010000000000,[],[],[0, 0, 0, 0, 0, 0, 0, 0, 0, 7, 2, 0, 5, 0, 0, 0, 7, 0, 0, 0, 0, 5, 0, 0, 0, 2, 0, 2, 5, 5, 5, 0, 0, 0, 7, 0, 0, 0, 0, 0, 5, 7, 0, 7, 0, 0, 0, 0, 0, 0],[0, 0, 0, 0, 0, 0, 0, 0, 0, 0, 0, 0, 0, 6, 0, 0, 0, 0, 0, 0, 0, 0, 0, 0, 0, 0, 3, 0, 0, 0, 0, 0, 0, 6, 0, 6, 3, 6, 3, 0, 0, 0, 0, 0, 0, 0, 3, 0, 6, 0],[],[0, 0, 0, 0, 8, 4, 4, 0, 0, 0, 0, 8, 0, 0, 4, 0, 0, 0, 8, 0, 4, 0, 10, 10, 8, 0, 0, 0, 0, 0, 0, 0, 0, 0, 0, 0, 0, 0, 0, 0, 0, 0, 4, 0, 4, 8, 0, 10, 0, 10],[],[],[],[1, 1, 9, 9, 0, 0, 0, 1, 9, 0, 0, 0, 0, 0, 0, 9, 0, 1, 0, 9, 0, 0, 0, 0, 0, 0, 0, 0, 0, 0, 0, 1, 9, 0, 0, 0, 0, 0, 0, 1, 0, 0, 0, 0, 0, 0, 0, 0, 0, 0][17, 1, 31, 39, 7, 0],[27, 10, 25],[46, 36, 26, 38],[14, 5, 42, 6, 20, 44],[28, 40, 30, 12, 21, 29],[37, 35, 33, 13, 48],[41, 16, 34, 9, 43],[18, 24, 11, 45, 4],[2, 32, 15, 8, 3, 19],[23, 49, 47, 22]
00000000000000000000000000000000000000000000000000,00000000000000000000000000000000000000000000000000,00000000000000000000000000000000000000000000000000,00000000000000000000000000000000000000000000000000,00000000011010001000010001011010101000001101000000,00000110000000100010101010000100000000000000101100,00001000000100000000000100100000010100000010010011,00000000000000000000000000000000000000000000000000,00000000000000000000000000000000000000000000000000,11110001100001010101000000000001000011110000000000,[],[],[],[],[0, 0, 0, 0, 0, 0, 0, 0, 0, 8, 9, 0, 6, 0, 0, 0, 8, 0, 0, 0, 0, 9, 0, 0, 0, 8, 0, 9, 8, 0, 9, 0, 6, 0, 9, 0, 0, 0, 0, 0, 8, 8, 0, 6, 0, 0, 0, 0, 0, 0],[0, 0, 0, 0, 0, 4, 4, 0, 0, 0, 0, 0, 0, 0, 1, 0, 0, 0, 4, 0, 4, 0, 4, 0, 4, 0, 0, 0, 0, 4, 0, 0, 0, 0, 0, 0, 0, 0, 0, 0, 0, 0, 0, 0, 1, 0, 1, 1, 0, 0],[0, 0, 0, 0, 7, 0, 0, 0, 0, 0, 0, 2, 0, 0, 0, 0, 0, 0, 0, 0, 0, 0, 0, 2, 0, 0, 7, 0, 0, 0, 0, 0, 0, 7, 0, 7, 0, 0, 0, 0, 0, 0, 7, 0, 0, 7, 0, 0, 2, 2],[],[],[3, 5, 3, 3, 0, 0, 0, 10, 10, 0, 0, 0, 0, 3, 0, 3, 0, 3, 0, 10, 0, 0, 0, 0, 0, 0, 0, 0, 0, 0, 0, 10, 0, 0, 0, 0, 10, 5, 5, 5, 0, 0, 0, 0, 0, 0, 0, 0, 0, 0][47, 14, 44, 46],[49, 23, 11, 48],[17, 3, 15, 2, 0, 13],[24, 18, 5, 20, 29, 22, 6],[38, 37, 39, 1],[32, 43, 12],[33, 4, 35, 45, 42, 26],[16, 41, 25, 40, 28, 9],[27, 21, 34, 30, 10],[31, 7, 8, 36, 19]
00001000000000000000000100000000000000000010010001,00000000000000000000000000000000000000000000000000,00000000000000000000000000000000000000000000000000,00000000000001000000000000100000010111100000001010,00000000011010001000000001011010101000001101000000,00000000000100000010100010000000000000000000000000,00000000000000000000000000000000000000000000000000,00000110000000100000001000000000000000000000100000,00000000000000000000010000000100000000000000000100,11110001100000010101000000000001000000010000000000,[0, 0, 0, 0, 8, 0, 0, 0, 0, 0, 0, 0, 0, 0, 0, 0, 0, 0, 0, 0, 0, 0, 0, 8, 0, 0, 0, 0, 0, 0, 0, 0, 0, 0, 0, 0, 0, 0, 0, 0, 0, 0, 8, 0, 0, 8, 0, 0, 0, 8],[],[],[0, 0, 0, 0, 0, 0, 0, 0, 0, 0, 0, 0, 0, 5, 0, 0, 0, 0, 0, 0, 0, 0, 0, 0, 0, 0, 5, 0, 0, 0, 0, 0, 0, 7, 0, 5, 7, 5, 7, 0, 0, 0, 0, 0, 0, 0, 7, 0, 5, 0],[0, 0, 0, 0, 0, 0, 0, 0, 0, 4, 1, 0, 4, 0, 0, 0, 4, 0, 0, 0, 0, 0, 0, 0, 0, 1, 0, 4, 1, 0, 1, 0, 1, 0, 4, 0, 0, 0, 0, 0, 4, 4, 0, 1, 0, 0, 0, 0, 0, 0],[0, 0, 0, 0, 0, 0, 0, 0, 0, 0, 0, 3, 0, 0, 0, 0, 0, 0, 3, 0, 3, 0, 0, 0, 3, 0, 0, 0, 0, 0, 0, 0, 0, 0, 0, 0, 0, 0, 0, 0, 0, 0, 0, 0, 0, 0, 0, 0, 0, 0],[],[0, 0, 0, 0, 0, 10, 10, 0, 0, 0, 0, 0, 0, 0, 10, 0, 0, 0, 0, 0, 0, 0, 10, 0, 0, 0, 0, 0, 0, 0, 0, 0, 0, 0, 0, 0, 0, 0, 0, 0, 0, 0, 0, 0, 10, 0, 0, 0, 0, 0],[0, 0, 0, 0, 0, 0, 0, 0, 0, 0, 0, 0, 0, 0, 0, 0, 0, 0, 0, 0, 0, 2, 0, 0, 0, 0, 0, 0, 0, 2, 0, 0, 0, 0, 0, 0, 0, 0, 0, 0, 0, 0, 0, 0, 0, 0, 0, 2, 0, 0],[6, 9, 6, 9, 0, 0, 0, 9, 9, 0, 0, 0, 0, 0, 0, 6, 0, 9, 0, 6, 0, 0, 0, 0, 0, 0, 0, 0, 0, 0, 0, 9, 0, 0, 0, 0, 0, 0, 0, 6, 0, 0, 0, 0, 0, 0, 0, 0, 0, 0][32, 30, 43, 28, 10, 25],[47, 21, 29],[11, 24, 18, 20],[34, 27, 41, 12, 16, 9, 40],[37, 13, 35, 48, 26],[0, 19, 39, 2, 15],[38, 33, 36, 46],[45, 49, 23, 42, 4],[1, 17, 7, 3, 8, 31],[14, 44, 5, 6, 22]
00000000000000000000000000000000000000000000000000,00000000000000000000000000000000000000000000000000,00000000000000000000000000000000000000000000000000,00000000000000000000000000000000000000000000000000,00000000000000000000000000000000000000000000000000,00001000001110001010110111000000000000000110010101,00000000000000000000000000000000000000000000000000,00000110010000100000001000111110011100101001101010,00000000000000000000000000000000000000000000000000,11110001100001010101000000000001100011010000000000,[],[],[],[],[],[0, 0, 0, 0, 9, 0, 0, 0, 0, 0, 9, 7, 10, 0, 0, 0, 7, 0, 9, 0, 10, 9, 0, 7, 9, 9, 0, 0, 0, 0, 0, 0, 0, 0, 0, 0, 0, 0, 0, 0, 0, 10, 7, 0, 0, 7, 0, 7, 0, 10],[],[0, 0, 0, 0, 0, 8, 4, 0, 0, 5, 0, 0, 0, 0, 5, 0, 0, 0, 0, 0, 0, 0, 4, 0, 0, 0, 8, 5, 4, 8, 4, 0, 0, 8, 4, 5, 0, 0, 8, 0, 4, 0, 0, 4, 5, 0, 5, 0, 4, 0],[],[6, 3, 3, 6, 0, 0, 0, 1, 6, 0, 0, 0, 0, 2, 0, 1, 0, 1, 0, 3, 0, 0, 0, 0, 0, 0, 0, 0, 0, 0, 0, 3, 2, 0, 0, 0, 1, 1, 0, 2, 0, 0, 0, 0, 0, 0, 0, 0, 0, 0][37, 7, 17, 36, 15],[32, 39, 13],[1, 31, 2, 19],[43, 6, 28, 34, 30, 48, 22, 40],[14, 9, 27, 44, 35, 46],[8, 0, 3],[42, 11, 23, 45, 16, 47],[5, 33, 26, 29, 38],[24, 21, 10, 25, 4, 18],[20, 41, 12, 49]
00000000000000000000000000000000000000000000000000,00000000000000000000000000000000000000000000000000,00000000011010001000010001011010001000001101000000,00000000000001000000000000100000010111100000001010,00000000000000000000000000000000000000000000000000,00000000000000000000000000000000000000000000000000,00001000000100000000000100000000000000000010010001,00000110000000100000101010000000000000000000100000,00000000000000000010000000000100000000000000000100,11110001100000010101000000000001100000010000000000,[],[],[0, 0, 0, 0, 0, 0, 0, 0, 0, 9, 9, 0, 10, 0, 0, 0, 10, 0, 0, 0, 0, 9, 0, 0, 0, 9, 0, 9, 9, 0, 9, 0, 0, 0, 10, 0, 0, 0, 0, 0, 9, 10, 0, 9, 0, 0, 0, 0, 0, 0],[0, 0, 0, 0, 0, 0, 0, 0, 0, 0, 0, 0, 0, 8, 0, 0, 0, 0, 0, 0, 0, 0, 0, 0, 0, 0, 2, 0, 0, 0, 0, 0, 0, 8, 0, 8, 8, 2, 2, 0, 0, 0, 0, 0, 0, 0, 2, 0, 8, 0],[],[],[0, 0, 0, 0, 1, 0, 0, 0, 0, 0, 0, 1, 0, 0, 0, 0, 0, 0, 0, 0, 0, 0, 0, 1, 0, 0, 0, 0, 0, 0, 0, 0, 0, 0, 0, 0, 0, 0, 0, 0, 0, 0, 1, 0, 0, 1, 0, 0, 0, 1],[0, 0, 0, 0, 0, 6, 6, 0, 0, 0, 0, 0, 0, 0, 6, 0, 0, 0, 0, 0, 7, 0, 7, 0, 7, 0, 0, 0, 0, 0, 0, 0, 0, 0, 0, 0, 0, 0, 0, 0, 0, 0, 0, 0, 7, 0, 0, 0, 0, 0],[0, 0, 0, 0, 0, 0, 0, 0, 0, 0, 0, 0, 0, 0, 0, 0, 0, 0, 5, 0, 0, 0, 0, 0, 0, 0, 0, 0, 0, 5, 0, 0, 0, 0, 0, 0, 0, 0, 0, 0, 0, 0, 0, 0, 0, 0, 0, 5, 0, 0],[3, 3, 4, 3, 0, 0, 0, 4, 4, 0, 0, 0, 0, 0, 0, 3, 0, 4, 0, 3, 0, 0, 0, 0, 0, 0, 0, 0, 0, 0, 0, 4, 3, 0, 0, 0, 0, 0, 0, 4, 0, 0, 0, 0, 0, 0, 0, 0, 0, 0][11, 45, 49, 4, 42, 23],[46, 38, 37, 26],[19, 0, 1, 15, 32, 3],[17, 8, 39, 2, 31, 7],[47, 18, 29],[14, 6, 5],[20, 22, 44, 24],[13, 36, 48, 35, 33],[10, 21, 43, 28, 25, 40, 27, 30, 9],[34, 12, 16, 41]
00001000001100000010110110000000000000000110010101,00000000010010001000000001011010101000001000000000,00000000000000000000000000000000000000000000000000,00000110000001100000001000100100010111100000101010,00000000000000000000000000000000000000000000000000,00000000000000000000000000000000000000000000000000,00000000000000000000000000000000000000000000000000,00000000000000000000000000000000000000000000000000,00000000000000000000000000000000000000000000000000,11110001100000010101000000000001000000010001000000,[0, 0, 0, 0, 7, 0, 0, 0, 0, 0, 1, 7, 0, 0, 0, 0, 0, 0, 3, 0, 1, 7, 0, 1, 1, 0, 0, 0, 0, 0, 0, 0, 0, 0, 0, 0, 0, 0, 0, 0, 0, 3, 1, 0, 0, 7, 0, 3, 0, 1],[0, 0, 0, 0, 0, 0, 0, 0, 0, 9, 0, 0, 6, 0, 0, 0, 9, 0, 0, 0, 0, 0, 0, 0, 0, 9, 0, 6, 9, 0, 9, 0, 9, 0, 6, 0, 0, 0, 0, 0, 6, 0, 0, 0, 0, 0, 0, 0, 0, 0],[],[0, 0, 0, 0, 0, 10, 2, 0, 0, 0, 0, 0, 0, 10, 5, 0, 0, 0, 0, 0, 0, 0, 2, 0, 0, 0, 2, 0, 0, 2, 0, 0, 0, 5, 0, 2, 5, 10, 5, 0, 0, 0, 0, 0, 5, 0, 10, 0, 5, 0],[],[],[],[],[],[8, 4, 4, 4, 0, 0, 0, 4, 4, 0, 0, 0, 0, 0, 0, 4, 0, 4, 0, 8, 0, 0, 0, 0, 0, 0, 0, 0, 0, 0, 0, 8, 0, 0, 0, 0, 0, 0, 0, 8, 0, 0, 0, 8, 0, 0, 0, 0, 0, 0][10, 20, 24, 23, 42, 49],[22, 29, 26, 6, 35],[47, 41, 18],[7, 8, 1, 3, 2, 15, 17],[48, 38, 36, 14, 44, 33],[12, 40, 34, 27],[4, 21, 11, 45],[19, 31, 39, 43, 0],[32, 28, 25, 16, 9, 30],[37, 13, 5, 46]
00000000000000000000000000000000000000000000000000,00000000000000000000000000000000000000000000000000,00000000000000000000000000000000000000000000000000,00000000000000000000000000000000000000000000000000,00100000011010011000000001011011101000001101000000,00000000000000000000000000000000000000000000000000,00001000000100000000000110100000010111100010010011,00000000000000000000000000000000000000000000000000,11010111100001100111111000000100000000010000101100,00000000000000000000000000000000000000000000000000,[],[],[],[],[0, 0, 1, 0, 0, 0, 0, 0, 0, 6, 1, 0, 8, 0, 0, 6, 8, 0, 0, 0, 0, 0, 0, 0, 0, 8, 0, 6, 8, 0, 1, 1, 6, 0, 1, 0, 0, 0, 0, 0, 8, 8, 0, 1, 0, 0, 0, 0, 0, 0],[],[0, 0, 0, 0, 3, 0, 0, 0, 0, 0, 0, 3, 0, 0, 0, 0, 0, 0, 0, 0, 0, 0, 0, 7, 5, 0, 3, 0, 0, 0, 0, 0, 0, 7, 0, 3, 7, 5, 5, 0, 0, 0, 5, 0, 0, 5, 0, 0, 3, 7],[],[4, 4, 0, 2, 0, 10, 2, 9, 9, 0, 0, 0, 0, 2, 9, 0, 0, 2, 10, 10, 9, 4, 9, 0, 0, 0, 0, 0, 0, 9, 0, 0, 0, 0, 0, 0, 0, 0, 0, 4, 0, 0, 0, 0, 9, 0, 10, 4, 0, 0],[][34, 10, 43, 2, 31, 30],[17, 3, 13, 6],[11, 4, 26, 35, 48],[39, 47, 21, 1, 0],[45, 24, 42, 37, 38],[32, 15, 27, 9],[23, 49, 33, 36],[16, 40, 28, 12, 41, 25],[20, 8, 7, 44, 22, 29, 14],[46, 18, 5, 19]
